NAME : portcgen-30-9
COMMENT : portcgen N=30, seed=9
TYPE : TSP
DIMENSION : 30
EDGE_WEIGHT_TYPE : EUC_2D
NODE_COORD_SECTION
1 -5664 218708
2 289203 113027
3 -208231 146791
4 55411 -68858
5 -36273 -104337
6 65955 -42259
7 -149310 125028
8 -104324 -34297
9 131498 4987
10 -103837 75885
11 40534 182469
12 -50586 265700
13 266216 -73534
14 -33102 23664
15 420652 19554
16 -203250 173856
17 -85385 482391
18 -91665 4895
19 -161204 237174
20 245906 5930
21 68679 23681
22 81431 -68606
23 105885 -91526
24 74099 -90609
25 -68400 301541
26 -157790 -201128
27 2437 -12776
28 -71776 156732
29 -211137 139439
30 4455 40290
